(set-info :smt-lib-version 2.6)
(set-logic QF_LIA)
(set-info :source |
Alberto Griggio

|)
(set-info :category "crafted")
(set-info :status unsat)
(declare-fun v0 () Int)
(declare-fun v1 () Int)
(declare-fun v2 () Int)
(declare-fun v3 () Int)
(declare-fun v4 () Int)
(declare-fun v5 () Int)
(declare-fun v6 () Int)
(declare-fun v7 () Int)
(declare-fun o_0 () Int)
(declare-fun s_2 () Int)
(declare-fun o_1 () Int)
(declare-fun s_3 () Int)
(declare-fun s_4 () Int)
(declare-fun o_2 () Int)
(declare-fun s_5 () Int)
(declare-fun s_6 () Int)
(declare-fun o_3 () Int)
(declare-fun o_4 () Int)
(declare-fun o_5 () Int)
(declare-fun o_6 () Int)
(declare-fun o_7 () Int)
(declare-fun o_8 () Int)
(declare-fun o_9 () Int)
(declare-fun s_10 () Int)
(declare-fun o_10 () Int)
(declare-fun s_11 () Int)
(declare-fun o_11 () Int)
(declare-fun s_12 () Int)
(declare-fun o_12 () Int)
(declare-fun s_13 () Int)
(declare-fun o_13 () Int)
(declare-fun A_itev1 () Int)
(declare-fun A_itev2 () Int)
(declare-fun A_itev3 () Int)
(declare-fun A_itev4 () Int)
(declare-fun A_itev5 () Int)
(declare-fun A_itev6 () Int)
(declare-fun A_itev7 () Int)
(declare-fun A_itev8 () Int)
(declare-fun A_itev9 () Int)
(declare-fun A_itev10 () Int)
(declare-fun A_itev11 () Int)
(declare-fun A_itev12 () Int)
(assert (let ((?v_103 (+ (+ (* v6 64) (* v7 128)) (* v5 32))) (?v_102 (* A_itev6 16)) (?v_44 (* v1 2)) (?v_30 (* v2 4)) (?v_66 (* v3 8)) (?v_99 (* v4 16)) (?v_96 (* A_itev6 8)) (?v_91 (* A_itev6 4)) (?v_86 (* A_itev6 2)) (?v_57 (* v5 2)) (?v_4 (* v7 2)) (?v_1 (<= 65536 v7))) (let ((?v_50 (not ?v_1)) (?v_27 (<= 65536 v2))) (let ((?v_49 (not ?v_27)) (?v_41 (<= 65536 v1))) (let ((?v_48 (not ?v_41)) (?v_47 (= A_itev12 A_itev11)) (?v_46 (= (+ (- A_itev12) ?v_44) 0)) (?v_45 (<= 32768 v1)) (?v_40 (+ (- A_itev11) ?v_44))) (let ((?v_43 (= ?v_40 65536)) (?v_42 (= ?v_40 131072)) (?v_39 (= A_itev10 A_itev9)) (?v_38 (= (+ (- A_itev10) ?v_30) 0)) (?v_37 (<= 16384 v2)) (?v_36 (= A_itev9 A_itev8)) (?v_35 (= (+ (- A_itev9) ?v_30) 65536)) (?v_34 (<= 32768 v2)) (?v_33 (= A_itev8 A_itev7)) (?v_32 (= (+ (- A_itev8) ?v_30) 131072)) (?v_31 (<= 49152 v2)) (?v_26 (+ (- A_itev7) ?v_30))) (let ((?v_29 (= ?v_26 196608)) (?v_28 (= ?v_26 262144)) (?v_25 (= A_itev6 A_itev5)) (?v_16 (= A_itev4 A_itev3)) (?v_7 (= A_itev2 A_itev1)) (?v_6 (= (+ (- A_itev2) ?v_4) 0)) (?v_5 (<= 32768 v7)) (?v_0 (+ (- A_itev1) ?v_4))) (let ((?v_3 (= ?v_0 65536)) (?v_2 (= ?v_0 131072)) (?v_13 (+ (+ (* o_7 (- 131072)) (* v6 2)) (* A_itev2 2)))) (let ((?v_8 (+ (- A_itev3) ?v_13))) (let ((?v_11 (= ?v_8 65536)) (?v_12 (+ (+ (* o_7 (- 65536)) v6) A_itev2))) (let ((?v_9 (<= 65536 ?v_12)) (?v_10 (= ?v_8 131072))) (let ((?v_79 (not ?v_9)) (?v_14 (<= 32768 ?v_12)) (?v_15 (= (+ ?v_13 (- A_itev4)) 0)) (?v_22 (+ (+ (* o_8 (- 131072)) ?v_57) (* A_itev4 2)))) (let ((?v_17 (+ (- A_itev5) ?v_22))) (let ((?v_20 (= ?v_17 65536)) (?v_21 (+ (+ (* o_8 (- 65536)) v5) A_itev4))) (let ((?v_18 (<= 65536 ?v_21)) (?v_19 (= ?v_17 131072))) (let ((?v_80 (not ?v_18)) (?v_23 (<= 32768 ?v_21)) (?v_24 (= (+ ?v_22 (- A_itev6)) 0)) (?v_69 (* o_0 (- 65536)))) (let ((?v_51 (+ (+ ?v_69 v0) A_itev12)) (?v_52 (+ (* s_2 (- 8192)) v3)) (?v_67 (* s_2 (- 65536)))) (let ((?v_54 (+ ?v_67 ?v_66)) (?v_68 (* o_1 (- 65536)))) (let ((?v_53 (+ (+ ?v_54 ?v_68) A_itev10)) (?v_58 (* s_3 (- 4096)))) (let ((?v_55 (+ ?v_58 v4)) (?v_56 (+ (* s_4 (- 2048)) v5)) (?v_72 (* s_4 (- 4096)))) (let ((?v_60 (+ (+ (+ ?v_57 v4) ?v_72) ?v_58)) (?v_73 (* o_2 (- 4096)))) (let ((?v_59 (+ ?v_60 ?v_73)) (?v_63 (* s_5 (- 1024)))) (let ((?v_61 (+ ?v_63 v6)) (?v_62 (+ (* s_6 (- 512)) v7)) (?v_65 (+ (+ (+ v6 ?v_4) (* s_6 (- 1024))) ?v_63))) (let ((?v_64 (+ (* o_3 (- 1024)) ?v_65)) (?v_71 (+ (+ (+ (+ ?v_66 v0) ?v_67) ?v_68) ?v_69)) (?v_76 (* o_4 (- 65536)))) (let ((?v_70 (+ (+ (+ ?v_71 ?v_76) A_itev10) A_itev12)) (?v_75 (+ (+ (+ (+ (+ (+ (+ (+ (+ (* v6 4) (* v7 8)) ?v_57) v4) (* s_6 (- 4096))) (* s_5 (- 4096))) (* o_3 (- 4096))) ?v_72) ?v_58) ?v_73))) (let ((?v_74 (+ (* o_5 (- 4096)) ?v_75)) (?v_104 (* s_6 (- 65536))) (?v_105 (* s_5 (- 65536))) (?v_106 (* o_3 (- 65536))) (?v_107 (* s_4 (- 65536))) (?v_108 (* s_3 (- 65536))) (?v_109 (* o_2 (- 65536))) (?v_110 (* o_5 (- 65536)))) (let ((?v_78 (+ (+ (+ (+ (+ (+ (+ (+ (+ (+ (+ (+ (+ (+ ?v_103 ?v_99) ?v_66) v0) ?v_104) ?v_105) ?v_106) ?v_107) ?v_108) ?v_109) ?v_110) ?v_67) ?v_68) ?v_69) ?v_76)) (?v_111 (* o_6 (- 65536)))) (let ((?v_77 (+ (+ (+ ?v_78 ?v_111) A_itev10) A_itev12)) (?v_82 (+ (* o_9 (- 65536)) v4))) (let ((?v_81 (+ ?v_82 A_itev6)) (?v_83 (+ (+ (* s_10 (- 32768)) ?v_82) A_itev6)) (?v_85 (+ (+ (+ (* o_9 (- 131072)) (* v4 2)) (* s_10 (- 65536))) v3))) (let ((?v_87 (+ ?v_85 (* o_10 (- 65536))))) (let ((?v_84 (+ ?v_87 ?v_86)) (?v_88 (+ (+ (* s_11 (- 32768)) ?v_87) ?v_86)) (?v_90 (+ (+ (+ (+ (+ (+ (* o_9 (- 262144)) (* v4 4)) (* s_10 (- 131072))) (* v3 2)) (* o_10 (- 131072))) (* s_11 (- 65536))) v2))) (let ((?v_92 (+ ?v_90 (* o_11 (- 65536))))) (let ((?v_89 (+ ?v_92 ?v_91)) (?v_93 (+ (+ (* s_12 (- 32768)) ?v_92) ?v_91)) (?v_95 (+ (+ (+ (+ (+ (+ (+ (+ (+ (* o_9 (- 524288)) (* v4 8)) (* s_10 (- 262144))) (* v3 4)) (* o_10 (- 262144))) (* s_11 (- 131072))) (* v2 2)) (* o_11 (- 131072))) (* s_12 (- 65536))) v1))) (let ((?v_97 (+ ?v_95 (* o_12 (- 65536))))) (let ((?v_94 (+ ?v_97 ?v_96)) (?v_98 (+ (+ (* s_13 (- 32768)) ?v_97) ?v_96)) (?v_101 (+ (+ (+ (+ (+ (+ (+ (+ (+ (+ (+ (+ (* o_9 (- 1048576)) ?v_99) (* s_10 (- 524288))) ?v_66) (* o_10 (- 524288))) (* s_11 (- 262144))) ?v_30) (* o_11 (- 262144))) (* s_12 (- 131072))) ?v_44) (* o_12 (- 131072))) (* s_13 (- 65536))) v0))) (let ((?v_100 (+ (+ (* o_13 (- 65536)) ?v_101) ?v_102))) (and (and (and (and (and (and (and (and (and (and (and (and (and (and (and (and (and (and (and (and (and (and (and (and (and (and (and (and (and (and (and (and (and (and (and (and (or ?v_2 ?v_50) (or ?v_3 ?v_1)) (or ?v_2 ?v_3)) (or ?v_5 ?v_6)) (or (not ?v_5) ?v_7)) (or ?v_6 ?v_7)) (or ?v_11 ?v_9)) (or ?v_10 ?v_79)) (or ?v_10 ?v_11)) (or ?v_14 ?v_15)) (or (not ?v_14) ?v_16)) (or ?v_15 ?v_16)) (or ?v_20 ?v_18)) (or ?v_19 ?v_80)) (or ?v_19 ?v_20)) (or ?v_23 ?v_24)) (or (not ?v_23) ?v_25)) (or ?v_24 ?v_25)) (or ?v_29 ?v_27)) (or ?v_28 ?v_49)) (or ?v_28 ?v_29)) (or ?v_31 ?v_32)) (or (not ?v_31) ?v_33)) (or ?v_32 ?v_33)) (or ?v_34 ?v_35)) (or (not ?v_34) ?v_36)) (or ?v_35 ?v_36)) (or ?v_37 ?v_38)) (or (not ?v_37) ?v_39)) (or ?v_38 ?v_39)) (or ?v_43 ?v_41)) (or ?v_42 ?v_48)) (or ?v_42 ?v_43)) (or ?v_45 ?v_46)) (or (not ?v_45) ?v_47)) (or ?v_46 ?v_47)) (and (and (and (and (and (and (and (and (and (and (and (and (and (and (and (and (and (and (and (and (and (and (and (and (and (and (and (and (and (and (and (and (and (and (and (and (and (and (and (and (and (and (and (and (and (and (and (and (and (and (and (and (and (and (and (and (and (and (and (and (and (and (and (and (and (and (and (and (and (and (and (and (and (and (and (and (and (and (<= 0 v0) (not (<= 65536 v0))) (and (<= 0 v1) ?v_48)) (and (<= 0 v2) ?v_49)) (and (<= 0 v3) (not (<= 65536 v3)))) (and (<= 0 v4) (not (<= 65536 v4)))) (and (<= 0 v5) (not (<= 65536 v5)))) (and (<= 0 v6) (not (<= 65536 v6)))) (and (<= 0 v7) ?v_50)) (and (<= 0 o_0) (<= o_0 1))) (and (<= 0 ?v_51) (not (<= 65536 ?v_51)))) (= (not (<= (+ A_itev12 v0) 65536)) (= o_0 1))) (and (not (<= 8 s_2)) (<= 0 s_2))) (and (<= 0 ?v_52) (not (<= 8192 ?v_52)))) (= (<= 1 s_2) (not (<= v3 8192)))) (and (<= 0 o_1) (<= o_1 1))) (and (<= 0 ?v_53) (not (<= 65536 ?v_53)))) (= (not (<= (+ ?v_54 A_itev10) 65536)) (= o_1 1))) (and (not (<= 16 s_3)) (<= 0 s_3))) (and (<= 0 ?v_55) (not (<= 4096 ?v_55)))) (= (<= 1 s_3) (not (<= v4 4096)))) (and (not (<= 32 s_4)) (<= 0 s_4))) (and (<= 0 ?v_56) (not (<= 2048 ?v_56)))) (= (<= 1 s_4) (not (<= v5 2048)))) (and (<= 0 o_2) (<= o_2 1))) (and (<= 0 ?v_59) (not (<= 4096 ?v_59)))) (= (not (<= ?v_60 4096)) (= o_2 1))) (and (not (<= 64 s_5)) (<= 0 s_5))) (and (<= 0 ?v_61) (not (<= 1024 ?v_61)))) (= (<= 1 s_5) (not (<= v6 1024)))) (and (not (<= 128 s_6)) (<= 0 s_6))) (and (<= 0 ?v_62) (not (<= 512 ?v_62)))) (= (<= 1 s_6) (not (<= v7 512)))) (and (<= 0 o_3) (<= o_3 1))) (and (<= 0 ?v_64) (not (<= 1024 ?v_64)))) (= (not (<= ?v_65 1024)) (= o_3 1))) (and (<= 0 o_4) (<= o_4 1))) (and (<= 0 ?v_70) (not (<= 65536 ?v_70)))) (= (not (<= (+ (+ ?v_71 A_itev10) A_itev12) 65536)) (= o_4 1))) (and (<= 0 o_5) (<= o_5 1))) (and (<= 0 ?v_74) (not (<= 4096 ?v_74)))) (= (not (<= ?v_75 4096)) (= o_5 1))) (and (<= 0 o_6) (<= o_6 1))) (and (<= 0 ?v_77) (not (<= 65536 ?v_77)))) (= (not (<= (+ (+ ?v_78 A_itev10) A_itev12) 65536)) (= o_6 1))) (and (<= 0 o_7) (<= o_7 1))) (and (<= 0 ?v_12) ?v_79)) (= (not (<= (+ A_itev2 v6) 65536)) (= o_7 1))) (and (<= 0 o_8) (<= o_8 1))) (and (<= 0 ?v_21) ?v_80)) (= (not (<= (+ A_itev4 v5) 65536)) (= o_8 1))) (and (<= 0 o_9) (<= o_9 1))) (and (<= 0 ?v_81) (not (<= 65536 ?v_81)))) (= (not (<= (+ A_itev6 v4) 65536)) (= o_9 1))) (and (not (<= 2 s_10)) (<= 0 s_10))) (and (<= 0 ?v_83) (not (<= 32768 ?v_83)))) (= (<= 1 s_10) (not (<= ?v_81 32768)))) (and (<= 0 o_10) (<= o_10 1))) (and (<= 0 ?v_84) (not (<= 65536 ?v_84)))) (= (not (<= (+ ?v_85 ?v_86) 65536)) (= o_10 1))) (and (not (<= 2 s_11)) (<= 0 s_11))) (and (<= 0 ?v_88) (not (<= 32768 ?v_88)))) (= (<= 1 s_11) (not (<= ?v_84 32768)))) (and (<= 0 o_11) (<= o_11 1))) (and (<= 0 ?v_89) (not (<= 65536 ?v_89)))) (= (not (<= (+ ?v_90 ?v_91) 65536)) (= o_11 1))) (and (not (<= 2 s_12)) (<= 0 s_12))) (and (<= 0 ?v_93) (not (<= 32768 ?v_93)))) (= (<= 1 s_12) (not (<= ?v_89 32768)))) (and (<= 0 o_12) (<= o_12 1))) (and (<= 0 ?v_94) (not (<= 65536 ?v_94)))) (= (not (<= (+ ?v_95 ?v_96) 65536)) (= o_12 1))) (and (not (<= 2 s_13)) (<= 0 s_13))) (and (<= 0 ?v_98) (not (<= 32768 ?v_98)))) (= (<= 1 s_13) (not (<= ?v_94 32768)))) (and (<= 0 o_13) (<= o_13 1))) (and (<= 0 ?v_100) (not (<= 65536 ?v_100)))) (= (not (<= (+ ?v_101 ?v_102) 65536)) (= o_13 1))) (not (= (+ (+ (+ (+ (+ (+ (+ (+ (+ (+ (+ (+ (+ (+ (+ (+ (+ (+ (+ (+ (+ (+ (+ (+ (+ (+ ?v_103 (* o_9 1048576)) (* s_10 524288)) (* o_10 524288)) (* s_11 262144)) (* v2 (- 4))) (* o_11 262144)) (* s_12 131072)) (* v1 (- 2))) (* o_12 131072)) (* s_13 65536)) (* o_13 65536)) ?v_104) ?v_105) ?v_106) ?v_107) ?v_108) ?v_109) ?v_110) ?v_67) ?v_68) ?v_69) ?v_76) ?v_111) (* A_itev6 (- 16))) A_itev10) A_itev12) 0))))))))))))))))))))))))))))))))))))))))
(check-sat)
(exit)
